



9 9
5 12 0 3 3 6 7 17 2 9 4 2 6 18 8 17 1 4
6 9 7 5 8 17 1 4 5 8 4 4 3 19 0 18 2 2
3 19 8 18 1 3 7 6 0 6 4 13 2 13 5 3 6 16
8 8 4 8 1 12 7 18 3 7 6 8 2 19 0 12 5 18
4 10 6 15 3 10 8 19 7 1 5 10 0 12 1 18 2 10
4 1 2 17 0 11 3 5 7 4 5 9 1 15 6 1 8 9
2 8 3 14 0 18 6 1 8 12 4 5 5 1 1 11 7 15
8 19 2 5 6 4 1 8 3 9 5 14 7 6 0 1 4 9
6 16 5 16 8 12 2 5 3 8 7 14 4 11 1 15 0 18
